language ESSENCE' 1.0

letting n_courses be 168
letting n_periods be 28
letting prerequisite_RelationAsSet_Explicit_1 be
        [2, 2, 3, 5, 6, 6, 6, 7, 7, 8, 9, 10, 10, 10, 11, 12, 13, 13, 13, 14, 16, 16, 16, 16, 16, 18, 18, 18, 19, 21,
         21, 22, 22, 25, 26, 26, 27, 27, 27, 28, 29, 29, 30, 30, 30, 31, 32, 32, 32, 33, 33, 34, 35, 35, 35, 36, 36, 37,
         40, 40, 41, 42, 42, 42, 43, 43, 44, 44, 44, 46, 46, 46, 49, 50, 51, 52, 54, 54, 54, 55, 56, 56, 57, 57, 57, 58,
         58, 59, 60, 63, 65, 65, 66, 67, 67, 68, 68, 68, 68, 68, 69, 70, 71, 71, 72, 74, 75, 75, 77, 77, 77, 78, 78, 80,
         81, 81, 82, 82, 83, 87, 88, 89, 89, 89, 90, 90, 90, 91, 91, 93, 93, 95, 96, 97, 99, 101, 102, 102, 103, 105,
         105, 106, 106, 106, 107, 107, 107;
             int(1..147)]
letting prerequisite_RelationAsSet_Explicit_2 be
        [80, 104, 64, 52, 73, 78, 86, 48, 76, 103, 72, 74, 84, 100, 94, 76, 53, 54, 75, 63, 62, 70, 79, 82, 105, 80, 85,
         91, 90, 55, 93, 66, 71, 102, 89, 107, 60, 68, 88, 99, 65, 83, 47, 58, 69, 56, 67, 104, 106, 74, 92, 81, 77, 90,
         93, 51, 83, 79, 50, 96, 98, 57, 73, 95, 49, 61, 73, 87, 101, 55, 59, 97, 113, 143, 135, 108, 129, 144, 163,
         119, 143, 148, 118, 127, 138, 126, 157, 141, 152, 112, 139, 147, 159, 135, 148, 114, 122, 151, 164, 168, 133,
         130, 123, 160, 116, 124, 117, 121, 110, 115, 167, 134, 156, 165, 134, 158, 154, 161, 137, 125, 128, 120, 149,
         150, 139, 140, 160, 132, 136, 129, 138, 155, 146, 142, 165, 155, 109, 140, 114, 111, 145, 131, 159, 162, 126,
         153, 166;
             int(1..147)]
letting course_load_Function1D be
        [3, 3, 2, 2, 2, 3, 2, 2, 2, 2, 3, 2, 2, 3, 2, 2, 3, 2, 2, 3, 2, 3, 3, 2, 2, 3, 3, 2, 2, 2, 2, 3, 2, 2, 3, 3, 2,
         3, 2, 2, 2, 3, 2, 2, 3, 2, 2, 2, 2, 3, 2, 2, 2, 3, 3, 2, 3, 3, 2, 2, 2, 3, 3, 2, 2, 3, 3, 3, 2, 3, 2, 2, 3, 2,
         2, 2, 3, 3, 3, 2, 2, 3, 2, 3, 2, 2, 2, 2, 2, 2, 3, 2, 2, 2, 3, 3, 2, 2, 2, 3, 3, 3, 3, 3, 2, 2, 2, 3, 2, 3, 3,
         2, 2, 2, 2, 2, 2, 3, 2, 2, 3, 3, 2, 2, 3, 2, 2, 2, 2, 2, 2, 2, 2, 3, 2, 3, 2, 3, 2, 2, 2, 2, 2, 2, 2, 2, 2, 3,
         2, 2, 3, 2, 2, 2, 3, 2, 2, 2, 3, 2, 3, 2, 3, 3, 2, 3, 3, 3;
             int(1..168)]
letting load_per_period_ub be 42
letting load_per_period_lb be 5
letting courses_per_period_ub be 10
letting courses_per_period_lb be 5
letting fin1 be 147
letting fin2 be 168
letting fin3 be 3
